NAME: random_instance_file
TYPE: TSP
COMMENT: comment
DIMENSION: 28
EDGE_WEIGHT_TYPE: EUC_2D
NODE_COORD_SECTION
1 86.0 39.0
2 52.0 95.0
3 90.0 74.0
4 10.0 66.0
5 38.0 90.0
6 13.0 27.0
7 21.0 54.0
8 67.0 38.0
9 55.0 76.0
10 20.0 80.0
11 100.0 34.0
12 59.0 42.0
13 30.0 56.0
14 27.0 16.0
15 24.0 86.0
16 23.0 23.0
17 7.0 7.0
18 28.0 28.0
19 44.0 47.0
20 93.0 87.0
21 33.0 30.0
22 95.0 32.0
23 56.0 45.0
24 9.0 53.0
25 25.0 40.0
26 15.0 49.0
27 45.0 84.0
28 83.0 93.0
EOF
